(set-logic QF_LRA)
(declare-fun X0 () Real )
(declare-fun Y0 () Real )
(declare-fun X1 () Real )
(declare-fun Y1 () Real )
(declare-fun X2 () Real )
(declare-fun Y2 () Real )
(declare-fun X3 () Real )
(declare-fun Y3 () Real )
(declare-fun X4 () Real )
(declare-fun Y4 () Real )
(declare-fun X5 () Real )
(declare-fun Y5 () Real )
(declare-fun Z () Real )
(declare-fun k () Real )
(assert (let
(( $goal (>= Z k) ))
(let
((
$phi ( and 
( or ( <= ( + X0 98 ) X1 )  ( <= ( + X1 75 ) X0 )  ( <= ( + Y0 72 ) Y1 )  ( <= ( + Y1 11 ) Y0 )  )
( or ( <= ( + X0 98 ) X2 )  ( <= ( + X2 52 ) X0 )  ( <= ( + Y0 72 ) Y2 )  ( <= ( + Y2 1 ) Y0 )  )
( or ( <= ( + X0 98 ) X3 )  ( <= ( + X3 30 ) X0 )  ( <= ( + Y0 72 ) Y3 )  ( <= ( + Y3 49 ) Y0 )  )
( or ( <= ( + X0 98 ) X4 )  ( <= ( + X4 44 ) X0 )  ( <= ( + Y0 72 ) Y4 )  ( <= ( + Y4 87 ) Y0 )  )
( or ( <= ( + X0 98 ) X5 )  ( <= ( + X5 40 ) X0 )  ( <= ( + Y0 72 ) Y5 )  ( <= ( + Y5 73 ) Y0 )  )
( or ( <= ( + X1 75 ) X2 )  ( <= ( + X2 52 ) X1 )  ( <= ( + Y1 11 ) Y2 )  ( <= ( + Y2 1 ) Y1 )  )
( or ( <= ( + X1 75 ) X3 )  ( <= ( + X3 30 ) X1 )  ( <= ( + Y1 11 ) Y3 )  ( <= ( + Y3 49 ) Y1 )  )
( or ( <= ( + X1 75 ) X4 )  ( <= ( + X4 44 ) X1 )  ( <= ( + Y1 11 ) Y4 )  ( <= ( + Y4 87 ) Y1 )  )
( or ( <= ( + X1 75 ) X5 )  ( <= ( + X5 40 ) X1 )  ( <= ( + Y1 11 ) Y5 )  ( <= ( + Y5 73 ) Y1 )  )
( or ( <= ( + X2 52 ) X3 )  ( <= ( + X3 30 ) X2 )  ( <= ( + Y2 1 ) Y3 )  ( <= ( + Y3 49 ) Y2 )  )
( or ( <= ( + X2 52 ) X4 )  ( <= ( + X4 44 ) X2 )  ( <= ( + Y2 1 ) Y4 )  ( <= ( + Y4 87 ) Y2 )  )
( or ( <= ( + X2 52 ) X5 )  ( <= ( + X5 40 ) X2 )  ( <= ( + Y2 1 ) Y5 )  ( <= ( + Y5 73 ) Y2 )  )
( or ( <= ( + X3 30 ) X4 )  ( <= ( + X4 44 ) X3 )  ( <= ( + Y3 49 ) Y4 )  ( <= ( + Y4 87 ) Y3 )  )
( or ( <= ( + X3 30 ) X5 )  ( <= ( + X5 40 ) X3 )  ( <= ( + Y3 49 ) Y5 )  ( <= ( + Y5 73 ) Y3 )  )
( or ( <= ( + X4 44 ) X5 )  ( <= ( + X5 40 ) X4 )  ( <= ( + Y4 87 ) Y5 )  ( <= ( + Y5 73 ) Y4 )  )
( >= X0 0)
( <= ( + X0 98) Z)
( >= Y0 0)
( <= ( + Y0 72 ) 100)
( >= X1 0)
( <= ( + X1 75) Z)
( >= Y1 0)
( <= ( + Y1 11 ) 100)
( >= X2 0)
( <= ( + X2 52) Z)
( >= Y2 0)
( <= ( + Y2 1 ) 100)
( >= X3 0)
( <= ( + X3 30) Z)
( >= Y3 0)
( <= ( + Y3 49 ) 100)
( >= X4 0)
( <= ( + X4 44) Z)
( >= Y4 0)
( <= ( + Y4 87 ) 100)
( >= X5 0)
( <= ( + X5 40) Z)
( >= Y5 0)
( <= ( + Y5 73 ) 100)
) )
)(=> $phi $goal))))